14	17	20	2	8	15	10	20	11	9	2	5	8	11	7	7	2	16	9	2
12	11	4	9	12	20	2	1	15	1	11	4	2	13	6	2	8	11	3	4
16	6	6	7	7	1	13	4	18	19	11	11	4	5	9	2	6	15	20	3
4	11	7	19	9	15	15	10	8	8	13	4	20	11	15	7	5	16	3	16
4	6	16	10	7	11	6	6	3	20	15	13	6	16	2	2	12	15	4	7
19	13	6	10	4	15	11	9	13	8	13	12	2	10	2	2	19	3	7	2
20	11	16	4	3	11	4	6	16	17	7	9	17	13	5	9	8	17	2	14
1	9	16	12	10	1	3	16	9	7	13	5	3	17	4	1	12	18	15	15
3	1	18	20	18	19	17	10	11	9	7	14	7	10	20	10	12	2	8	12
